; benchmark generated from python API
(set-info :status unknown)
(declare-datatypes ((IntState 0)) (((Mk1 (val1 Int)) (Mk2 (val2 Int)))))
 (declare-fun c_main_~z~0 () Int)
(declare-fun c_main_~x~0 () Int)
(declare-fun c_main_~y~0 () Int)
(assert
 (let (($x240 (exists ((|v_main_#t~nondet2_7_st| IntState) (val!91 Int) )(exists ((|v_main_#t~nondet2_8_st| IntState) (val!92 Int) )(exists ((|v_main_#t~nondet2_5_st| IntState) (val!93 Int) )(exists ((|v_main_#t~nondet2_6_st| IntState) (val!94 Int) )(let ((?x106 (val2 |v_main_#t~nondet2_6_st|)))
 (let ((?x261 (* 4194304 ?x106)))
 (let ((?x151 (val2 |v_main_#t~nondet2_5_st|)))
 (let ((?x170 (* 4194304 ?x151)))
 (let ((?x152 (val2 |v_main_#t~nondet2_8_st|)))
 (let ((?x118 (* 4194304 ?x152)))
 (let ((?x79 (val2 |v_main_#t~nondet2_7_st|)))
 (let ((?x94 (* 4194304 ?x79)))
 (let (($x112 (not (= |v_main_#t~nondet2_6_st| (Mk1 val!94)))))
 (let (($x92 (not (= |v_main_#t~nondet2_5_st| (Mk1 val!93)))))
 (let (($x103 (not (= |v_main_#t~nondet2_8_st| (Mk1 val!92)))))
 (let (($x140 (not (= |v_main_#t~nondet2_7_st| (Mk1 val!91)))))
 (and $x140 $x103 $x92 $x112 (= (+ ?x94 ?x118 ?x170 ?x261) c_main_~z~0)))))))))))))))
 )
 )
 )
 ))
 (let (($x90 (exists ((|v_main_#t~nondet0_7_st| IntState) (val!87 Int) )(exists ((|v_main_#t~nondet0_8_st| IntState) (val!88 Int) )(exists ((|v_main_#t~nondet0_5_st| IntState) (val!89 Int) )(exists ((|v_main_#t~nondet0_6_st| IntState) (val!90 Int) )(let ((?x195 (+ (* 1048576 (val2 |v_main_#t~nondet0_7_st|)) (* 1048576 (val2 |v_main_#t~nondet0_8_st|)) (* 1048576 (val2 |v_main_#t~nondet0_5_st|)) (* 1048576 (val2 |v_main_#t~nondet0_6_st|)))))
 (let (($x112 (not (= |v_main_#t~nondet0_6_st| (Mk1 val!90)))))
 (let (($x92 (not (= |v_main_#t~nondet0_5_st| (Mk1 val!89)))))
 (let (($x103 (not (= |v_main_#t~nondet0_8_st| (Mk1 val!88)))))
 (let (($x140 (not (= |v_main_#t~nondet0_7_st| (Mk1 val!87)))))
 (and $x140 $x103 $x92 $x112 (= ?x195 c_main_~x~0))))))))
 )
 )
 )
 ))
 (let (($x218 (exists ((|v_main_#t~nondet1_8_st| IntState) (val!83 Int) )(exists ((|v_main_#t~nondet1_6_st| IntState) (val!84 Int) )(exists ((|v_main_#t~nondet1_7_st| IntState) (val!85 Int) )(exists ((|v_main_#t~nondet1_5_st| IntState) (val!86 Int) )(let ((?x163 (+ (* 2097152 (val2 |v_main_#t~nondet1_8_st|)) (* 2097152 (val2 |v_main_#t~nondet1_6_st|)) (* 2097152 (val2 |v_main_#t~nondet1_7_st|)) (* 2097152 (val2 |v_main_#t~nondet1_5_st|)))))
 (let (($x112 (not (= |v_main_#t~nondet1_5_st| (Mk1 val!86)))))
 (let (($x92 (not (= |v_main_#t~nondet1_7_st| (Mk1 val!85)))))
 (let (($x103 (not (= |v_main_#t~nondet1_6_st| (Mk1 val!84)))))
 (let (($x140 (not (= |v_main_#t~nondet1_8_st| (Mk1 val!83)))))
 (and $x140 $x103 $x92 $x112 (= ?x163 c_main_~y~0))))))))
 )
 )
 )
 ))
 (let (($x26 (exists ((|v_main_#t~nondet2_7| Int) )(exists ((|v_main_#t~nondet2_5| Int) )(exists ((|v_main_#t~nondet2_6| Int) )(= c_main_~z~0 (+ (* 4194304 |v_main_#t~nondet2_7|) (* 4194304 |v_main_#t~nondet2_5|) (* 4194304 |v_main_#t~nondet2_6|))))
 )
 )
 ))
 (let (($x37 (exists ((|v_main_#t~nondet0_7| Int) )(exists ((|v_main_#t~nondet0_5| Int) )(exists ((|v_main_#t~nondet0_6| Int) )(= (+ (* 1048576 |v_main_#t~nondet0_7|) (* 1048576 |v_main_#t~nondet0_5|) (* 1048576 |v_main_#t~nondet0_6|)) c_main_~x~0))
 )
 )
 ))
 (let (($x172 (exists ((|v_main_#t~nondet1_6| Int) )(exists ((|v_main_#t~nondet1_7| Int) )(exists ((|v_main_#t~nondet1_5| Int) )(= (+ (* 2097152 |v_main_#t~nondet1_6|) (* 2097152 |v_main_#t~nondet1_7|) (* 2097152 |v_main_#t~nondet1_5|)) c_main_~y~0))
 )
 )
 ))
 (and (and $x172 $x37 $x26) (not (and $x218 $x90 $x240))))))))))
(check-sat)
